 O  C 
 1.0000000000000000
     8.0000000000000000    0.0000000000000000    0.0000000000000000
     0.0000000000000000    8.0000000000000000    0.0000000000000000
     0.0000000000000000    0.0000000000000000    9.1503399999999999
   1   1
Cartesian
  4.0000000000000000  4.0000000000000000  5.1503399999999999
  4.0000000000000000  4.0000000000000000  4.0000000000000000
